c Reduced graph for p36 generated by Cyril Grelier
p edge 93 721
e 1 2
e 1 3
e 1 5
e 1 7
e 1 11
e 1 17
e 1 19
e 1 24
e 1 26
e 1 50
e 1 51
e 1 73
e 1 74
e 1 76
e 1 79
e 1 81
e 2 10
e 2 14
e 2 16
e 2 23
e 2 28
e 2 32
e 2 50
e 2 51
e 2 73
e 2 74
e 2 76
e 2 79
e 2 81
e 3 4
e 3 5
e 3 7
e 3 11
e 3 17
e 3 19
e 3 23
e 3 24
e 3 26
e 3 45
e 3 54
e 3 57
e 3 69
e 3 70
e 3 71
e 3 72
e 3 83
e 3 84
e 4 22
e 4 23
e 4 36
e 4 38
e 4 45
e 4 47
e 4 49
e 4 54
e 4 57
e 4 67
e 4 69
e 4 70
e 4 71
e 4 72
e 4 83
e 4 84
e 5 6
e 5 7
e 5 11
e 5 17
e 5 19
e 5 21
e 5 22
e 5 24
e 5 26
e 5 39
e 5 40
e 5 44
e 5 77
e 5 88
e 5 90
e 6 21
e 6 22
e 6 39
e 6 40
e 6 43
e 6 44
e 6 45
e 6 53
e 6 58
e 6 68
e 6 77
e 6 88
e 6 90
e 7 8
e 7 9
e 7 10
e 7 11
e 7 17
e 7 19
e 7 24
e 7 26
e 7 34
e 7 36
e 7 56
e 7 59
e 7 64
e 7 89
e 8 9
e 8 10
e 8 30
e 8 34
e 8 36
e 8 56
e 8 59
e 8 61
e 8 64
e 8 77
e 8 79
e 8 82
e 8 84
e 8 89
e 9 10
e 9 21
e 9 33
e 9 34
e 9 36
e 9 42
e 9 56
e 9 59
e 9 60
e 9 63
e 9 64
e 9 71
e 9 87
e 9 89
e 10 14
e 10 16
e 10 23
e 10 28
e 10 32
e 10 34
e 10 36
e 10 56
e 10 59
e 10 64
e 10 89
e 11 12
e 11 17
e 11 19
e 11 24
e 11 26
e 11 31
e 11 32
e 11 48
e 11 49
e 11 78
e 11 85
e 12 31
e 12 32
e 12 35
e 12 48
e 12 49
e 12 57
e 12 78
e 12 81
e 12 85
e 12 89
e 12 90
e 13 14
e 13 18
e 13 19
e 13 20
e 13 40
e 13 41
e 13 46
e 13 47
e 13 48
e 13 54
e 13 55
e 13 64
e 13 76
e 13 86
e 13 87
e 14 16
e 14 19
e 14 20
e 14 23
e 14 28
e 14 32
e 14 41
e 14 46
e 14 47
e 14 86
e 14 87
e 15 16
e 15 20
e 15 24
e 15 25
e 15 29
e 15 30
e 15 33
e 15 35
e 15 37
e 15 38
e 15 55
e 15 56
e 15 58
e 15 65
e 15 69
e 15 73
e 15 80
e 15 85
e 15 91
e 16 23
e 16 24
e 16 25
e 16 28
e 16 29
e 16 30
e 16 32
e 16 33
e 16 35
e 16 37
e 16 38
e 16 55
e 16 58
e 17 18
e 17 19
e 17 24
e 17 26
e 17 60
e 17 61
e 17 65
e 17 66
e 17 67
e 17 68
e 17 75
e 18 40
e 18 48
e 18 54
e 18 55
e 18 60
e 18 61
e 18 64
e 18 65
e 18 66
e 18 67
e 18 68
e 18 75
e 18 76
e 19 20
e 19 24
e 19 26
e 19 41
e 19 46
e 19 47
e 19 86
e 19 87
e 20 41
e 20 46
e 20 47
e 20 56
e 20 65
e 20 69
e 20 73
e 20 80
e 20 85
e 20 86
e 20 87
e 20 91
e 21 22
e 21 33
e 21 39
e 21 40
e 21 42
e 21 44
e 21 60
e 21 63
e 21 71
e 21 77
e 21 87
e 21 88
e 21 90
e 22 36
e 22 38
e 22 39
e 22 40
e 22 44
e 22 47
e 22 49
e 22 67
e 22 77
e 22 88
e 22 90
e 23 28
e 23 32
e 23 45
e 23 54
e 23 57
e 23 69
e 23 70
e 23 71
e 23 72
e 23 83
e 23 84
e 24 25
e 24 26
e 24 29
e 24 30
e 24 33
e 24 35
e 24 37
e 24 38
e 24 55
e 24 58
e 25 29
e 25 30
e 25 33
e 25 35
e 25 37
e 25 38
e 25 39
e 25 46
e 25 55
e 25 58
e 25 62
e 25 74
e 25 75
e 25 78
e 25 83
e 25 92
e 26 27
e 26 42
e 26 43
e 26 91
e 26 92
e 26 93
e 27 29
e 27 31
e 27 34
e 27 42
e 27 43
e 27 44
e 27 50
e 27 66
e 27 70
e 27 86
e 27 91
e 27 92
e 27 93
e 28 32
e 28 52
e 28 53
e 28 62
e 28 63
e 28 80
e 28 82
e 29 30
e 29 31
e 29 33
e 29 34
e 29 35
e 29 37
e 29 38
e 29 44
e 29 50
e 29 55
e 29 58
e 29 66
e 29 70
e 29 86
e 30 33
e 30 35
e 30 37
e 30 38
e 30 55
e 30 58
e 30 61
e 30 77
e 30 79
e 30 82
e 30 84
e 31 32
e 31 34
e 31 44
e 31 48
e 31 49
e 31 50
e 31 66
e 31 70
e 31 78
e 31 85
e 31 86
e 32 48
e 32 49
e 32 78
e 32 85
e 33 35
e 33 37
e 33 38
e 33 42
e 33 55
e 33 58
e 33 60
e 33 63
e 33 71
e 33 87
e 34 36
e 34 44
e 34 50
e 34 56
e 34 59
e 34 64
e 34 66
e 34 70
e 34 86
e 34 89
e 35 37
e 35 38
e 35 55
e 35 57
e 35 58
e 35 81
e 35 89
e 35 90
e 36 38
e 36 47
e 36 49
e 36 56
e 36 59
e 36 64
e 36 67
e 36 89
e 37 38
e 37 41
e 37 51
e 37 52
e 37 55
e 37 58
e 37 59
e 37 72
e 37 88
e 37 93
e 38 47
e 38 49
e 38 55
e 38 58
e 38 67
e 39 40
e 39 44
e 39 46
e 39 62
e 39 74
e 39 75
e 39 77
e 39 78
e 39 83
e 39 88
e 39 90
e 39 92
e 40 44
e 40 48
e 40 54
e 40 55
e 40 64
e 40 76
e 40 77
e 40 88
e 40 90
e 41 46
e 41 47
e 41 51
e 41 52
e 41 59
e 41 72
e 41 86
e 41 87
e 41 88
e 41 93
e 42 43
e 42 60
e 42 63
e 42 71
e 42 87
e 42 91
e 42 92
e 42 93
e 43 45
e 43 53
e 43 58
e 43 68
e 43 91
e 43 92
e 43 93
e 44 50
e 44 66
e 44 70
e 44 77
e 44 86
e 44 88
e 44 90
e 45 53
e 45 54
e 45 57
e 45 58
e 45 68
e 45 69
e 45 70
e 45 71
e 45 72
e 45 83
e 45 84
e 46 47
e 46 62
e 46 74
e 46 75
e 46 78
e 46 83
e 46 86
e 46 87
e 46 92
e 47 49
e 47 67
e 47 86
e 47 87
e 48 49
e 48 54
e 48 55
e 48 64
e 48 76
e 48 78
e 48 85
e 49 67
e 49 78
e 49 85
e 50 51
e 50 66
e 50 70
e 50 73
e 50 74
e 50 76
e 50 79
e 50 81
e 50 86
e 51 52
e 51 59
e 51 72
e 51 73
e 51 74
e 51 76
e 51 79
e 51 81
e 51 88
e 51 93
e 52 53
e 52 59
e 52 62
e 52 63
e 52 72
e 52 80
e 52 82
e 52 88
e 52 93
e 53 58
e 53 62
e 53 63
e 53 68
e 53 80
e 53 82
e 54 55
e 54 57
e 54 64
e 54 69
e 54 70
e 54 71
e 54 72
e 54 76
e 54 83
e 54 84
e 55 58
e 55 64
e 55 76
e 56 59
e 56 64
e 56 65
e 56 69
e 56 73
e 56 80
e 56 85
e 56 89
e 56 91
e 57 69
e 57 70
e 57 71
e 57 72
e 57 81
e 57 83
e 57 84
e 57 89
e 57 90
e 58 68
e 59 64
e 59 72
e 59 88
e 59 89
e 59 93
e 60 61
e 60 63
e 60 65
e 60 66
e 60 67
e 60 68
e 60 71
e 60 75
e 60 87
e 61 65
e 61 66
e 61 67
e 61 68
e 61 75
e 61 77
e 61 79
e 61 82
e 61 84
e 62 63
e 62 74
e 62 75
e 62 78
e 62 80
e 62 82
e 62 83
e 62 92
e 63 71
e 63 80
e 63 82
e 63 87
e 64 76
e 64 89
e 65 66
e 65 67
e 65 68
e 65 69
e 65 73
e 65 75
e 65 80
e 65 85
e 65 91
e 66 67
e 66 68
e 66 70
e 66 75
e 66 86
e 67 68
e 67 75
e 68 75
e 69 70
e 69 71
e 69 72
e 69 73
e 69 80
e 69 83
e 69 84
e 69 85
e 69 91
e 70 71
e 70 72
e 70 83
e 70 84
e 70 86
e 71 72
e 71 83
e 71 84
e 71 87
e 72 83
e 72 84
e 72 88
e 72 93
e 73 74
e 73 76
e 73 79
e 73 80
e 73 81
e 73 85
e 73 91
e 74 75
e 74 76
e 74 78
e 74 79
e 74 81
e 74 83
e 74 92
e 75 78
e 75 83
e 75 92
e 76 79
e 76 81
e 77 79
e 77 82
e 77 84
e 77 88
e 77 90
e 78 83
e 78 85
e 78 92
e 79 81
e 79 82
e 79 84
e 80 82
e 80 85
e 80 91
e 81 89
e 81 90
e 82 84
e 83 84
e 83 92
e 85 91
e 86 87
e 88 90
e 88 93
e 89 90
e 91 92
e 91 93
e 92 93
